language ESSENCE' 1.0

letting n_courses be 184
letting n_periods be 24
letting prerequisite_RelationAsSet_Explicit_1 be
        [1, 1, 1, 2, 2, 2, 2, 3, 3, 3, 4, 4, 5, 5, 5, 5, 5, 5, 6, 6, 6, 7, 7, 7, 7, 7, 8, 8, 8, 8, 8, 8, 9, 9, 9, 9, 9,
         10, 10, 10, 11, 11, 11, 11, 11, 11, 11, 12, 12, 12, 12, 13, 13, 13, 14, 14, 14, 14, 14, 14, 15, 15, 15, 15, 16,
         16, 16, 16, 16, 16, 17, 17, 17, 17, 17, 17, 18, 18, 18, 20, 20, 20, 20, 21, 21, 21, 22, 22, 22, 22, 22, 22, 22,
         23, 23, 23, 23, 24, 24, 24, 25, 25, 26, 26, 26, 26, 26, 26, 27, 27, 27, 27, 28, 28, 28, 28, 28, 28, 29, 29, 29,
         29, 29, 29, 29, 30, 30, 31, 31, 32, 32, 32, 32, 33, 33, 33, 33, 33, 34, 34, 34, 35, 35, 35, 36, 36, 36, 37, 37,
         37, 37, 37, 38, 38, 38, 39, 39, 39, 39, 39, 39, 40, 40, 40, 40, 41, 41, 41, 42, 42, 42, 42, 42, 42, 42, 42, 42,
         43, 43, 43, 43, 44, 44, 44, 45, 45, 46, 46, 46, 46, 47, 47, 47, 48, 49, 49, 49, 50, 50, 51, 51, 52, 53, 53, 53,
         54, 54, 55, 57, 58, 58, 58, 59, 59, 59, 60, 61, 61, 61, 61, 62, 63, 63, 64, 64, 65, 66, 66, 66, 67, 67, 67, 67,
         68, 69, 69, 70, 71, 71, 72, 72, 72, 72, 72, 72, 73, 74, 74, 74, 74, 75, 75, 76, 76, 77, 78, 78, 79, 79, 79, 80,
         81, 81, 81, 81, 81, 82, 82, 82, 83, 84, 85, 86, 86, 86, 87, 87, 87, 87, 88, 88, 91, 91, 92, 92, 93, 94, 94, 94,
         95, 96, 97, 97, 98, 99, 100, 100, 100, 101, 101, 101, 101, 102, 102, 102, 103, 103, 103, 103, 104, 104, 105,
         106, 106, 106, 107, 107, 108, 108, 110, 110, 110, 110, 111, 111, 112, 112, 112, 112, 114, 114, 115, 115, 116,
         116, 117, 117, 117, 119, 119, 119, 120, 120, 120, 121, 121, 123, 123, 123, 123, 124, 124, 124;
             int(1..353)]
letting prerequisite_RelationAsSet_Explicit_2 be
        [70, 101, 106, 56, 93, 95, 115, 72, 94, 106, 82, 101, 49, 55, 62, 93, 117, 125, 61, 76, 94, 48, 76, 81, 109,
         122, 50, 54, 61, 69, 78, 107, 54, 59, 61, 70, 86, 73, 83, 89, 58, 59, 67, 75, 80, 97, 121, 97, 104, 114, 120,
         67, 74, 120, 50, 53, 83, 93, 118, 119, 65, 68, 75, 93, 82, 97, 99, 104, 113, 116, 49, 55, 61, 86, 91, 113, 88,
         101, 116, 49, 71, 84, 116, 102, 105, 111, 48, 64, 65, 90, 91, 113, 125, 72, 75, 121, 122, 100, 114, 123, 98,
         122, 48, 53, 60, 77, 100, 107, 49, 62, 98, 125, 58, 63, 67, 70, 73, 82, 52, 56, 57, 69, 79, 108, 110, 48, 100,
         90, 101, 58, 94, 101, 123, 50, 63, 72, 104, 108, 50, 87, 118, 84, 112, 119, 64, 90, 120, 51, 62, 72, 85, 91,
         72, 76, 102, 78, 88, 97, 113, 118, 122, 56, 64, 75, 86, 88, 92, 113, 62, 64, 66, 76, 87, 89, 107, 121, 124, 66,
         88, 90, 111, 117, 121, 122, 57, 111, 63, 82, 96, 116, 50, 87, 103, 153, 148, 169, 173, 143, 181, 154, 182, 140,
         135, 176, 180, 138, 175, 184, 146, 140, 144, 160, 138, 145, 156, 139, 127, 151, 169, 180, 184, 134, 180, 151,
         166, 169, 148, 172, 179, 132, 152, 165, 182, 171, 129, 144, 170, 133, 154, 126, 139, 161, 169, 174, 184, 175,
         140, 142, 155, 181, 136, 173, 137, 167, 161, 143, 157, 157, 158, 180, 145, 130, 137, 153, 156, 164, 168, 178,
         182, 156, 126, 147, 128, 134, 176, 149, 151, 163, 172, 159, 179, 137, 177, 132, 133, 166, 151, 168, 174, 129,
         162, 138, 165, 181, 148, 138, 141, 181, 131, 149, 167, 171, 129, 153, 170, 137, 157, 174, 178, 141, 164, 183,
         128, 137, 146, 162, 174, 126, 130, 130, 158, 166, 175, 150, 159, 142, 148, 154, 160, 131, 167, 155, 179, 138,
         141, 138, 139, 152, 127, 163, 171, 131, 139, 173, 168, 177, 146, 159, 160, 161, 131, 137, 163;
             int(1..353)]
letting course_load_Function1D be
        [5, 6, 5, 4, 2, 4, 6, 2, 6, 5, 6, 4, 2, 4, 3, 3, 2, 5, 4, 7, 3, 4, 6, 5, 2, 2, 6, 5, 2, 3, 5, 7, 5, 7, 4, 6, 3,
         4, 2, 5, 5, 4, 5, 4, 5, 5, 6, 2, 2, 6, 2, 4, 2, 3, 2, 7, 5, 7, 4, 3, 3, 3, 5, 3, 5, 7, 5, 6, 3, 6, 4, 6, 7, 7,
         6, 6, 4, 2, 6, 3, 3, 2, 5, 6, 4, 3, 2, 5, 2, 2, 5, 2, 2, 6, 5, 2, 2, 4, 2, 4, 3, 2, 3, 3, 5, 6, 2, 3, 2, 2, 5,
         3, 7, 3, 2, 4, 6, 5, 6, 6, 4, 3, 5, 3, 6, 2, 2, 7, 6, 7, 4, 5, 3, 2, 6, 4, 2, 5, 6, 2, 3, 3, 2, 5, 4, 2, 2, 6,
         5, 5, 2, 5, 3, 4, 4, 4, 5, 3, 3, 5, 4, 6, 6, 2, 7, 4, 5, 2, 6, 5, 4, 4, 3, 2, 6, 2, 2, 5, 6, 3, 2, 3, 2, 4;
             int(1..184)]
letting load_per_period_ub be 33
letting load_per_period_lb be 9
letting courses_per_period_ub be 8
letting courses_per_period_lb be 4
letting fin1 be 353
letting fin2 be 184
letting fin3 be 7
